100
1000
396
395
394
394
393
389
387
387
387
385
385
384
383
380
379
378
375
374
373
373
373
372
370
367
365
364
361
358
358
354
353
351
348
347
347
347
344
344
343
343
342
342
342
341
341
340
340
338
336
334
334
332
330
329
329
326
326
325
324
323
322
321
321
321
319
317
316
312
311
310
310
310
309
306
306
305
301
300
300
298
298
298
295
293
292
289
287
286
286
285
281
281
280
280
276
275
274
274
274
271
